c A SAT instance generated from a 3-CNF formula that had 30 clauses and 10 variables
p cnf 10 30
5 -10 3 0
9 -2 -6 0
8 -2 9 0
-4 -7 -9 0
-7 -10 8 0
5 -10 2 0
9 -4 -10 0
9 10 -4 0
7 9 10 0
-10 4 8 0
-3 -7 -6 0
-5 -4 9 0
7 -5 -8 0
-2 8 5 0
-4 9 -3 0
-10 -2 9 0
-4 -2 8 0
-9 -1 -4 0
-2 -4 6 0
-7 1 -2 0
6 7 1 0
4 -1 5 0
10 8 4 0
8 6 10 0
-2 -4 -8 0
1 8 -6 0
5 -7 -6 0
3 5 6 0
-3 8 7 0
-10 7 2 0
